c Reduced graph for miles500_0 generated by Cyril Grelier
p edge 90 874
e 1 2
e 1 4
e 1 11
e 1 12
e 1 22
e 1 23
e 1 29
e 1 31
e 1 32
e 1 33
e 1 34
e 1 38
e 1 45
e 1 46
e 1 51
e 1 52
e 1 53
e 1 56
e 1 57
e 1 58
e 1 60
e 1 61
e 1 62
e 1 64
e 1 67
e 1 68
e 1 69
e 1 73
e 1 76
e 1 77
e 1 79
e 1 80
e 1 83
e 1 84
e 1 85
e 2 11
e 2 13
e 2 22
e 2 23
e 2 24
e 2 29
e 2 31
e 2 32
e 2 34
e 2 38
e 2 45
e 2 46
e 2 51
e 2 52
e 2 56
e 2 57
e 2 58
e 2 60
e 2 61
e 2 62
e 2 63
e 2 64
e 2 67
e 2 68
e 2 69
e 2 73
e 2 76
e 2 77
e 2 79
e 2 80
e 2 83
e 2 84
e 2 87
e 3 4
e 3 12
e 3 14
e 3 15
e 3 25
e 3 30
e 3 32
e 3 33
e 3 41
e 3 47
e 3 53
e 3 54
e 3 56
e 3 60
e 3 65
e 3 66
e 3 69
e 3 70
e 3 72
e 3 73
e 3 74
e 3 75
e 3 78
e 3 86
e 3 88
e 3 89
e 3 90
e 4 12
e 4 31
e 4 32
e 4 33
e 4 53
e 4 56
e 4 60
e 4 61
e 4 65
e 4 66
e 4 69
e 4 73
e 4 74
e 4 76
e 4 77
e 4 78
e 4 79
e 4 85
e 4 89
e 4 90
e 5 6
e 5 7
e 5 8
e 5 15
e 5 25
e 5 39
e 5 40
e 5 48
e 5 54
e 5 70
e 5 71
e 5 72
e 5 81
e 5 82
e 5 88
e 6 7
e 6 8
e 6 39
e 6 40
e 6 48
e 6 71
e 6 81
e 6 82
e 7 35
e 7 39
e 7 48
e 7 81
e 7 82
e 8 9
e 8 40
e 9 19
e 10 36
e 10 37
e 11 13
e 11 22
e 11 23
e 11 24
e 11 29
e 11 31
e 11 32
e 11 34
e 11 38
e 11 45
e 11 46
e 11 51
e 11 52
e 11 56
e 11 57
e 11 58
e 11 61
e 11 62
e 11 63
e 11 64
e 11 67
e 11 68
e 11 73
e 11 76
e 11 77
e 11 80
e 11 83
e 11 84
e 11 85
e 12 30
e 12 31
e 12 32
e 12 33
e 12 41
e 12 47
e 12 53
e 12 54
e 12 56
e 12 60
e 12 65
e 12 66
e 12 69
e 12 73
e 12 74
e 12 75
e 12 76
e 12 77
e 12 78
e 12 79
e 12 85
e 12 86
e 12 89
e 12 90
e 13 16
e 13 22
e 13 24
e 13 29
e 13 38
e 13 42
e 13 49
e 13 51
e 13 59
e 13 62
e 13 63
e 13 79
e 13 83
e 13 87
e 14 15
e 14 25
e 14 30
e 14 41
e 14 47
e 14 65
e 14 70
e 14 72
e 14 74
e 14 75
e 14 86
e 14 88
e 14 89
e 15 25
e 15 30
e 15 40
e 15 47
e 15 70
e 15 71
e 15 72
e 15 88
e 15 89
e 16 17
e 16 24
e 16 42
e 16 49
e 16 55
e 16 59
e 16 62
e 16 63
e 16 79
e 16 87
e 17 35
e 17 42
e 17 54
e 17 55
e 17 59
e 17 66
e 17 82
e 17 87
e 18 26
e 18 27
e 18 43
e 18 44
e 18 50
e 19 20
e 20 43
e 21 28
e 22 23
e 22 24
e 22 29
e 22 31
e 22 32
e 22 34
e 22 38
e 22 45
e 22 51
e 22 52
e 22 56
e 22 57
e 22 58
e 22 59
e 22 61
e 22 62
e 22 63
e 22 67
e 22 76
e 22 77
e 22 79
e 22 80
e 22 83
e 22 84
e 22 87
e 23 29
e 23 31
e 23 32
e 23 34
e 23 38
e 23 45
e 23 46
e 23 51
e 23 52
e 23 56
e 23 57
e 23 58
e 23 60
e 23 61
e 23 64
e 23 67
e 23 68
e 23 73
e 23 76
e 23 77
e 23 80
e 23 83
e 23 84
e 23 85
e 24 29
e 24 31
e 24 33
e 24 38
e 24 42
e 24 45
e 24 51
e 24 56
e 24 59
e 24 62
e 24 63
e 24 69
e 24 76
e 24 77
e 24 79
e 24 83
e 24 84
e 24 87
e 25 30
e 25 39
e 25 40
e 25 41
e 25 47
e 25 65
e 25 70
e 25 71
e 25 72
e 25 74
e 25 75
e 25 86
e 25 88
e 25 89
e 26 27
e 26 43
e 26 44
e 26 50
e 27 43
e 27 44
e 27 50
e 29 31
e 29 32
e 29 33
e 29 34
e 29 38
e 29 45
e 29 46
e 29 51
e 29 52
e 29 56
e 29 57
e 29 58
e 29 60
e 29 61
e 29 62
e 29 63
e 29 64
e 29 67
e 29 68
e 29 69
e 29 73
e 29 76
e 29 77
e 29 79
e 29 80
e 29 83
e 29 84
e 29 85
e 29 87
e 30 41
e 30 47
e 30 53
e 30 54
e 30 65
e 30 70
e 30 71
e 30 72
e 30 74
e 30 75
e 30 86
e 30 88
e 30 89
e 31 32
e 31 33
e 31 34
e 31 38
e 31 45
e 31 46
e 31 51
e 31 52
e 31 53
e 31 56
e 31 57
e 31 58
e 31 60
e 31 61
e 31 62
e 31 63
e 31 66
e 31 69
e 31 73
e 31 74
e 31 76
e 31 77
e 31 78
e 31 79
e 31 80
e 31 83
e 31 84
e 31 85
e 31 90
e 32 33
e 32 34
e 32 38
e 32 45
e 32 46
e 32 51
e 32 52
e 32 53
e 32 56
e 32 57
e 32 58
e 32 60
e 32 61
e 32 62
e 32 66
e 32 69
e 32 73
e 32 74
e 32 76
e 32 77
e 32 78
e 32 79
e 32 83
e 32 84
e 32 85
e 32 90
e 33 38
e 33 45
e 33 53
e 33 54
e 33 56
e 33 60
e 33 61
e 33 62
e 33 65
e 33 66
e 33 69
e 33 70
e 33 73
e 33 74
e 33 76
e 33 77
e 33 78
e 33 79
e 33 85
e 33 86
e 33 89
e 33 90
e 34 38
e 34 45
e 34 46
e 34 51
e 34 52
e 34 56
e 34 57
e 34 58
e 34 61
e 34 62
e 34 63
e 34 64
e 34 67
e 34 68
e 34 73
e 34 76
e 34 77
e 34 80
e 34 83
e 34 84
e 34 85
e 35 39
e 35 48
e 35 55
e 35 81
e 35 82
e 36 37
e 38 45
e 38 51
e 38 52
e 38 56
e 38 57
e 38 58
e 38 60
e 38 61
e 38 62
e 38 63
e 38 69
e 38 73
e 38 76
e 38 77
e 38 79
e 38 80
e 38 83
e 38 84
e 38 87
e 39 40
e 39 47
e 39 48
e 39 54
e 39 65
e 39 66
e 39 70
e 39 71
e 39 78
e 39 81
e 39 82
e 39 88
e 40 47
e 40 48
e 40 54
e 40 65
e 40 70
e 40 71
e 40 72
e 40 81
e 40 88
e 41 47
e 41 53
e 41 65
e 41 72
e 41 74
e 41 75
e 41 86
e 41 89
e 41 90
e 42 49
e 42 55
e 42 59
e 42 63
e 42 87
e 43 44
e 43 50
e 44 50
e 45 46
e 45 51
e 45 52
e 45 56
e 45 57
e 45 58
e 45 60
e 45 61
e 45 62
e 45 63
e 45 64
e 45 67
e 45 68
e 45 69
e 45 73
e 45 76
e 45 77
e 45 80
e 45 83
e 45 84
e 45 85
e 46 51
e 46 52
e 46 56
e 46 57
e 46 58
e 46 61
e 46 64
e 46 67
e 46 68
e 46 73
e 46 76
e 46 77
e 46 80
e 46 83
e 46 84
e 46 85
e 47 53
e 47 54
e 47 65
e 47 66
e 47 70
e 47 71
e 47 72
e 47 74
e 47 75
e 47 78
e 47 86
e 47 88
e 47 89
e 48 70
e 48 71
e 48 81
e 48 82
e 48 88
e 49 55
e 49 59
e 49 87
e 51 52
e 51 56
e 51 57
e 51 58
e 51 60
e 51 61
e 51 62
e 51 63
e 51 64
e 51 67
e 51 68
e 51 69
e 51 73
e 51 76
e 51 77
e 51 80
e 51 83
e 51 84
e 51 85
e 52 56
e 52 57
e 52 58
e 52 61
e 52 64
e 52 67
e 52 68
e 52 73
e 52 76
e 52 77
e 52 80
e 52 83
e 52 84
e 52 85
e 53 54
e 53 56
e 53 60
e 53 65
e 53 66
e 53 69
e 53 73
e 53 74
e 53 75
e 53 76
e 53 77
e 53 78
e 53 79
e 53 85
e 53 86
e 53 89
e 53 90
e 54 60
e 54 65
e 54 66
e 54 69
e 54 70
e 54 71
e 54 73
e 54 74
e 54 78
e 54 86
e 54 88
e 54 89
e 55 59
e 55 82
e 55 87
e 56 57
e 56 58
e 56 60
e 56 61
e 56 62
e 56 66
e 56 69
e 56 73
e 56 74
e 56 76
e 56 77
e 56 78
e 56 79
e 56 83
e 56 84
e 56 85
e 56 90
e 57 58
e 57 60
e 57 61
e 57 62
e 57 63
e 57 64
e 57 67
e 57 68
e 57 73
e 57 76
e 57 77
e 57 80
e 57 83
e 57 84
e 57 85
e 58 61
e 58 64
e 58 67
e 58 68
e 58 77
e 58 80
e 58 83
e 58 84
e 58 85
e 59 62
e 59 63
e 59 87
e 60 61
e 60 62
e 60 65
e 60 66
e 60 69
e 60 73
e 60 74
e 60 76
e 60 77
e 60 78
e 60 79
e 60 85
e 60 86
e 60 89
e 60 90
e 61 64
e 61 67
e 61 68
e 61 69
e 61 73
e 61 76
e 61 77
e 61 80
e 61 83
e 61 84
e 61 85
e 62 63
e 62 69
e 62 73
e 62 76
e 62 77
e 62 79
e 62 83
e 62 84
e 62 87
e 63 76
e 63 77
e 63 79
e 63 83
e 63 84
e 63 87
e 64 67
e 64 68
e 64 80
e 64 83
e 64 84
e 65 66
e 65 69
e 65 70
e 65 71
e 65 73
e 65 74
e 65 75
e 65 76
e 65 78
e 65 86
e 65 88
e 65 89
e 65 90
e 66 69
e 66 70
e 66 71
e 66 73
e 66 74
e 66 76
e 66 77
e 66 78
e 66 79
e 66 86
e 66 88
e 66 89
e 67 68
e 67 80
e 67 83
e 67 84
e 67 85
e 68 80
e 68 83
e 68 84
e 68 85
e 69 73
e 69 74
e 69 76
e 69 77
e 69 78
e 69 79
e 69 85
e 69 89
e 69 90
e 70 71
e 70 72
e 70 74
e 70 78
e 70 81
e 70 82
e 70 88
e 71 72
e 71 78
e 71 81
e 71 88
e 72 75
e 72 86
e 72 88
e 72 89
e 73 74
e 73 76
e 73 77
e 73 78
e 73 79
e 73 85
e 73 89
e 73 90
e 74 75
e 74 76
e 74 78
e 74 86
e 74 89
e 74 90
e 75 78
e 75 86
e 75 89
e 75 90
e 76 77
e 76 78
e 76 79
e 76 83
e 76 84
e 76 85
e 76 90
e 77 78
e 77 79
e 77 80
e 77 83
e 77 84
e 77 85
e 78 79
e 78 86
e 78 88
e 78 89
e 78 90
e 79 87
e 80 83
e 80 84
e 80 85
e 81 82
e 81 88
e 83 84
e 83 87
e 84 85
e 85 90
e 86 89
e 86 90
e 88 89
